NAME          BLANK   
ROWS
 N  OBJROW
 L  R0000000
COLUMNS
    C0000000  OBJROW     -671.         R0000000  338.        
    C0000001  OBJROW     -735.         R0000000  120.        
    C0000002  OBJROW     -491.         R0000000  9.          
    C0000003  OBJROW     -455.         R0000000  273.        
    C0000004  OBJROW     -987.         R0000000  336.        
    C0000005  OBJROW     -687.         R0000000  962.        
    C0000006  OBJROW     -28.          R0000000  632.        
    C0000007  OBJROW     -518.         R0000000  723.        
    C0000008  OBJROW     -308.         R0000000  651.        
    C0000009  OBJROW     -163.         R0000000  70.         
    C0000010  OBJROW     -614.         R0000000  107.        
    C0000011  OBJROW     -460.         R0000000  702.        
    C0000012  OBJROW     -694.         R0000000  820.        
    C0000013  OBJROW     -331.         R0000000  492.        
    C0000014  OBJROW     -419.         R0000000  15.         
RHS
    RHS       R0000000  14110.      
BOUNDS
 BV BOUND     C0000000  1.          
 BV BOUND     C0000001  1.          
 BV BOUND     C0000002  1.          
 BV BOUND     C0000003  1.          
 BV BOUND     C0000004  1.          
 BV BOUND     C0000005  1.          
 BV BOUND     C0000006  1.          
 BV BOUND     C0000007  1.          
 BV BOUND     C0000008  1.          
 BV BOUND     C0000009  1.          
 BV BOUND     C0000010  1.          
 BV BOUND     C0000011  1.          
 BV BOUND     C0000012  1.          
 BV BOUND     C0000013  1.          
 BV BOUND     C0000014  1.          
ENDATA
